============================[ Problem Statistics ]=============================|                                                                             ||  Number of variables:          4242                                         ||  Number of clauses:           10186                                         ||  Parse time:                   0.57 s                                       ||                                                                             |============================[ Search Statistics ]==============================| Conflicts |          ORIGINAL         |          LEARNT          | Progress ||           |    Vars  Clauses Literals |    Limit  Clauses Lit/Cl |          |===============================================================================|       100 |    1591     6391   915482 |     2343      100     53 | 62.501 % ||       250 |    1591     6391   915482 |     2577      250     75 | 62.495 % |===============================================================================restarts              : 3conflicts             : 317            (366 /sec)decisions             : 581            (0.00 % random) (672 /sec)propagations          : 11886          (13741 /sec)conflict literals     : 25287          (94.70 % deleted)CPU time              : 0.865 sSATISFIABLE